
Gurobi 13.0.2 (win64) logging started Thu Jul 23 05:20:16 2026

Set parameter LogFile to value "E:\codes\ExactEBRP\results\gf_cplex_equivalent_gurobi_replica_round28\runs\stage2__high_imbalance_seed3202__c3_replica__300s\external\native_logs\R.1.0.0.0.0.1.0.1.0.0_terminal_mip.gurobi.log"
Gurobi Optimizer version 13.0.2 build v13.0.2rc1 (win64 - Windows 10.0 (19045.2))

CPU model: 12th Gen Intel(R) Core(TM) i7-12700KF, instruction set [SSE2|AVX|AVX2]
Thread count: 12 physical cores, 20 logical processors, using up to 1 threads

Non-default parameters:
TimeLimit  1.8107999089999998e+02
MIPGap  0
MIPGapAbs  0
LogToConsole  0
Threads  1

Optimize a model with 11895 rows, 3372 columns and 67322 nonzeros (Min)
Model fingerprint: 0x07c88322
Model has 21 linear objective coefficients
Variable types: 1683 continuous, 1689 integer (1489 binary)
Coefficient statistics:
  Matrix range     [1e-02, 2e+04]
  Objective range  [1e-02, 1e+00]
  Bounds range     [5e-01, 2e+03]
  RHS range        [5e-01, 5e+04]

Presolve removed 2401 rows and 94 columns
Presolve time: 0.20s
Presolved: 9494 rows, 3278 columns, 57785 nonzeros
Variable types: 1627 continuous, 1651 integer (1466 binary)

Root relaxation: objective 1.614757e+00, 3403 iterations, 0.19 seconds (0.47 work units)

    Nodes    |    Current Node    |     Objective Bounds      |     Work
 Expl Unexpl |  Obj  Depth IntInf | Incumbent    BestBd   Gap | It/Node Time

     0     0    1.61476    0  228          -    1.61476      -     -    0s
     0     0    1.69903    0  233          -    1.69903      -     -    0s
     0     0 infeasible    0               - infeasible      -     -    1s

Cutting planes:
  Learned: 5
  Gomory: 1
  Cover: 19
  Implied bound: 120
  Clique: 14
  MIR: 209
  StrongCG: 10
  Flow cover: 68
  GUB cover: 1
  Zero half: 14
  Network: 15
  RLT: 9
  Relax-and-lift: 28
  BQP: 21
  PSD: 1

Explored 1 nodes (9025 simplex iterations) in 1.27 seconds (2.56 work units)
Thread count was 1 (of 20 available processors)

Solution count 0

Model is infeasible
Best objective -, best bound -, gap -

User-callback calls 967, time in user-callback 0.00 sec
